\ENCODING=ISO-8859-1
\Problem name: 

Maximize
 obj: 2470.58823529412 y_0_0_0 + 705.882352941176 y_0_1_0
      + 2823.52941176471 y_0_2_0 + 1235.29411764706 y_0_0_1
      + 352.941176470588 y_0_1_1 + 1411.76470588235 y_0_2_1
      + 2470.58823529412 y_0_0_2 + 705.882352941176 y_0_1_2
      + 2823.52941176471 y_0_2_2 + 277.777777777778 y_1_0_0
      + 333.333333333333 y_1_1_0 + 388.888888888889 y_1_2_0
      + 138.888888888889 y_1_0_1 + 166.666666666667 y_1_1_1
      + 194.444444444444 y_1_2_1 + 277.777777777778 y_1_0_2
      + 333.333333333333 y_1_1_2 + 388.888888888889 y_1_2_2 + 1500 y_2_0_0
      + 3750 y_2_1_0 + 3750 y_2_2_0 + 750 y_2_0_1 + 1875 y_2_1_1 + 1875 y_2_2_1
      + 1500 y_2_0_2 + 3750 y_2_1_2 + 3750 y_2_2_2
Subject To
 c0_0#0:     y_0_0_0 + y_0_0_1 + y_0_0_2 <= 1
 c0_1#1:     y_0_1_0 + y_0_1_1 + y_0_1_2 <= 1
 c0_2#2:     y_0_2_0 + y_0_2_1 + y_0_2_2 <= 1
 c1_0#3:     y_1_0_0 + y_1_0_1 + y_1_0_2 <= 1
 c1_1#4:     y_1_1_0 + y_1_1_1 + y_1_1_2 <= 1
 c1_2#5:     y_1_2_0 + y_1_2_1 + y_1_2_2 <= 1
 c2_0#6:     y_2_0_0 + y_2_0_1 + y_2_0_2 <= 1
 c2_1#7:     y_2_1_0 + y_2_1_1 + y_2_1_2 <= 1
 c2_2#8:     y_2_2_0 + y_2_2_1 + y_2_2_2 <= 1
 d0_0_0#9:   - x_0 + y_0_0_0 <= 0
 d0_0_1#10:  - x_1 + y_0_0_1 <= 0
 d0_0_2#11:  - x_2 + y_0_0_2 <= 0
 d0_1_0#12:  - x_0 + y_0_1_0 <= 0
 d0_1_1#13:  - x_1 + y_0_1_1 <= 0
 d0_1_2#14:  - x_2 + y_0_1_2 <= 0
 d0_2_0#15:  - x_0 + y_0_2_0 <= 0
 d0_2_1#16:  - x_1 + y_0_2_1 <= 0
 d0_2_2#17:  - x_2 + y_0_2_2 <= 0
 d1_0_0#18:  - x_0 + y_1_0_0 <= 0
 d1_0_1#19:  - x_1 + y_1_0_1 <= 0
 d1_0_2#20:  - x_2 + y_1_0_2 <= 0
 d1_1_0#21:  - x_0 + y_1_1_0 <= 0
 d1_1_1#22:  - x_1 + y_1_1_1 <= 0
 d1_1_2#23:  - x_2 + y_1_1_2 <= 0
 d1_2_0#24:  - x_0 + y_1_2_0 <= 0
 d1_2_1#25:  - x_1 + y_1_2_1 <= 0
 d1_2_2#26:  - x_2 + y_1_2_2 <= 0
 d2_0_0#27:  - x_0 + y_2_0_0 <= 0
 d2_0_1#28:  - x_1 + y_2_0_1 <= 0
 d2_0_2#29:  - x_2 + y_2_0_2 <= 0
 d2_1_0#30:  - x_0 + y_2_1_0 <= 0
 d2_1_1#31:  - x_1 + y_2_1_1 <= 0
 d2_1_2#32:  - x_2 + y_2_1_2 <= 0
 d2_2_0#33:  - x_0 + y_2_2_0 <= 0
 d2_2_1#34:  - x_1 + y_2_2_1 <= 0
 d2_2_2#35:  - x_2 + y_2_2_2 <= 0
 _e0_0_0#36: x_0 + y_0_0_1 <= 1
 _e0_0_2#37: x_2 + y_0_0_0 + y_0_0_1 <= 1
 _e0_1_0#38: x_0 + y_0_1_2 <= 1
 _e0_1_1#39: x_1 + y_0_1_0 + y_0_1_2 <= 1
 _e0_2_1#40: x_1 + y_0_2_0 <= 1
 _e0_2_2#41: x_2 + y_0_2_0 + y_0_2_1 <= 1
 _e1_0_0#42: x_0 + y_1_0_1 <= 1
 _e1_0_2#43: x_2 + y_1_0_0 + y_1_0_1 <= 1
 _e1_1_0#44: x_0 + y_1_1_2 <= 1
 _e1_1_1#45: x_1 + y_1_1_0 + y_1_1_2 <= 1
 _e1_2_1#46: x_1 + y_1_2_0 <= 1
 _e1_2_2#47: x_2 + y_1_2_0 + y_1_2_1 <= 1
 _e2_0_0#48: x_0 + y_2_0_1 <= 1
 _e2_0_2#49: x_2 + y_2_0_0 + y_2_0_1 <= 1
 _e2_1_0#50: x_0 + y_2_1_2 <= 1
 _e2_1_1#51: x_1 + y_2_1_0 + y_2_1_2 <= 1
 _e2_2_1#52: x_1 + y_2_2_0 <= 1
 _e2_2_2#53: x_2 + y_2_2_0 + y_2_2_1 <= 1
 _e0_1_2#54: y_0_1_0 + y_0_1_2 <= 0
 _e0_2_2#55: y_0_2_0 <= 0
 _e1_1_2#56: y_1_1_0 + y_1_1_2 <= 0
 _e1_2_2#57: y_1_2_0 <= 0
 _e2_1_2#58: y_2_1_0 + y_2_1_2 <= 0
 _e2_2_2#59: y_2_2_0 <= 0
 c61#60:     x_0 + x_1 + x_2  = 3
Bounds
 0 <= x_0 <= 1
 0 <= x_1 <= 1
 0 <= x_2 <= 1
Generals
 x_0  x_1  x_2 
End
